(set-logic HORN)
(declare-datatypes ((Bool_49 0)) (((false_49 ) (true_49 ))))
(declare-fun diseqBool_20 (Bool_49 Bool_49) Bool)
(declare-fun isfalse_20 (Bool_49) Bool)
(declare-fun istrue_20 (Bool_49) Bool)
(assert (isfalse_20 false_49))
(assert (istrue_20 true_49))
(assert (diseqBool_20 false_49 true_49))
(assert (diseqBool_20 true_49 false_49))
(declare-fun and_49 (Bool_49 Bool_49 Bool_49) Bool)
(declare-fun or_49 (Bool_49 Bool_49 Bool_49) Bool)
(declare-fun hence_49 (Bool_49 Bool_49 Bool_49) Bool)
(declare-fun not_49 (Bool_49 Bool_49) Bool)
(assert (and_49 false_49 false_49 false_49))
(assert (and_49 false_49 true_49 false_49))
(assert (and_49 false_49 false_49 true_49))
(assert (and_49 true_49 true_49 true_49))
(assert (or_49 false_49 false_49 false_49))
(assert (or_49 true_49 true_49 false_49))
(assert (or_49 true_49 false_49 true_49))
(assert (or_49 true_49 true_49 true_49))
(assert (hence_49 true_49 false_49 false_49))
(assert (hence_49 false_49 true_49 false_49))
(assert (hence_49 true_49 false_49 true_49))
(assert (hence_49 true_49 true_49 true_49))
(assert (not_49 true_49 false_49))
(assert (not_49 false_49 true_49))
(declare-datatypes ((Nat_95 0)) (((Z_267 ) (S_95 (projS_92 Nat_95)))))
(declare-fun diseqNat_95 (Nat_95 Nat_95) Bool)
(declare-fun projS_93 (Nat_95 Nat_95) Bool)
(declare-fun isZ_95 (Nat_95) Bool)
(declare-fun isS_95 (Nat_95) Bool)
(assert (forall ((x_2608 Nat_95))
	(projS_93 x_2608 (S_95 x_2608))))
(assert (isZ_95 Z_267))
(assert (forall ((x_2610 Nat_95))
	(isS_95 (S_95 x_2610))))
(assert (forall ((x_2611 Nat_95))
	(diseqNat_95 Z_267 (S_95 x_2611))))
(assert (forall ((x_2612 Nat_95))
	(diseqNat_95 (S_95 x_2612) Z_267)))
(assert (forall ((x_2613 Nat_95) (x_2614 Nat_95))
	(=> (diseqNat_95 x_2613 x_2614)
	    (diseqNat_95 (S_95 x_2613) (S_95 x_2614)))))
(declare-fun min_2 (Nat_95 Nat_95 Nat_95) Bool)
(assert (forall ((x_2589 Nat_95) (y_210 Nat_95) (z_268 Nat_95))
	(=> (min_2 x_2589 z_268 y_210)
	    (min_2 (S_95 x_2589) (S_95 z_268) (S_95 y_210)))))
(assert (forall ((z_268 Nat_95))
	(min_2 Z_267 (S_95 z_268) Z_267)))
(assert (forall ((y_209 Nat_95))
	(min_2 Z_267 Z_267 y_209)))
(declare-fun x_2582 (Bool_49 Nat_95 Nat_95) Bool)
(assert (forall ((x_2592 Bool_49) (y_212 Nat_95) (x_2584 Nat_95))
	(=> (x_2582 x_2592 x_2584 y_212)
	    (x_2582 x_2592 (S_95 x_2584) (S_95 y_212)))))
(assert (forall ((x_2584 Nat_95))
	(x_2582 false_49 (S_95 x_2584) Z_267)))
(assert (forall ((z_269 Nat_95))
	(x_2582 false_49 Z_267 (S_95 z_269))))
(assert (x_2582 true_49 Z_267 Z_267))
(declare-fun x_2585 (Bool_49 Nat_95 Nat_95) Bool)
(assert (forall ((x_2597 Bool_49) (x_2587 Nat_95) (z_270 Nat_95))
	(=> (x_2585 x_2597 z_270 x_2587)
	    (x_2585 x_2597 (S_95 z_270) (S_95 x_2587)))))
(assert (forall ((z_270 Nat_95))
	(x_2585 false_49 (S_95 z_270) Z_267)))
(assert (forall ((y_213 Nat_95))
	(x_2585 true_49 Z_267 y_213)))
(assert (forall ((x_2601 Nat_95) (x_2602 Bool_49) (x_2603 Bool_49) (a_5 Nat_95) (b_5 Nat_95))
	(=>	(and true
			(diseqBool_20 x_2602 x_2603)
			(min_2 x_2601 a_5 b_5)
			(x_2582 x_2602 x_2601 b_5)
			(x_2585 x_2603 b_5 a_5))
		false)))
(check-sat)
